838951
219,12,46,16,224,110,47,57,138,196,142,10,56,94,78,166,123,172,130,180,135,118,205,217,208,125,69,85,72,112,159,41,97,68,158,162,31,62,71,0,6,209,116,19,93,86,34,107,49,33,204,74,214,77,168,26,39,80,129,54,61,150,27,36,178,195,88,182,161,134,139,70,117,48,66,82,156,73,146,177,22,225,176,50,121,151,190,113,9,197,173,75,58,220,51,84,187,194,192,28,83,122,24,60,147,181,79,131,114,148,76,221,40,127,140,23,65,215,99,52,17,55,53,174,91,104,201,98,189,218,105,120,179,157,81,1,203,171,167,92,212,44,211,229,103,202,37,223,152,128,102,186,11,145,185,170,149,89,108,87,227,169,141,3,20,216,32,5,67,106,191,101,111,154,132,228,35,21,25,63,29,164,96,119,109,13,200,198,30,42,38,206,126,15,188,184,207,2,137,59,136,14,7,193,18,133,226,124,45,213,153,64,199,163,175,222,8,100,160,183,115,165,95,90,143,144,210,155,4,43,219